0
30
25
26
20
42
40
0
33
46
27
37
45
34
25
0
36
36
0
0
35
33
27
0
31
35
33
0
37
38
30
27
0
27
26
30
23
37
40
22
0
32
0
24
48
24
28
31
26
32
19
42
53
0
22
51
75
53
25
37
0
98
27
32
39
38
41
0
29
0
30
22
53
43
0
0
35
26
34
67
0
35
40
0
46
48
0
33
24
0
0
30
0
23
26
27
24
56
0
0
